Version identifier: 20.1.0.0 | 2020-11-10 | 9bedb6d68
Tried aggregator 2 times.
MIP Presolve eliminated 1762 rows and 1014 columns.
MIP Presolve modified 3452 coefficients.
Aggregator did 190 substitutions.
Reduced MIP has 1454 rows, 1203 columns, and 4629 nonzeros.
Reduced MIP has 309 binaries, 894 generals, 0 SOSs, and 0 indicators.
Presolve time = 0.02 sec. (7.68 ticks)
Found incumbent of value 56.000000 after 0.03 sec. (13.03 ticks)
Probing fixed 40 vars, tightened 330 bounds.
Probing time = 0.00 sec. (1.62 ticks)
Tried aggregator 1 time.
Detecting symmetries...
MIP Presolve eliminated 600 rows and 40 columns.
MIP Presolve modified 76 coefficients.
Reduced MIP has 854 rows, 1163 columns, and 2789 nonzeros.
Reduced MIP has 431 binaries, 732 generals, 0 SOSs, and 0 indicators.
Presolve time = 0.01 sec. (3.35 ticks)
Probing time = 0.00 sec. (0.23 ticks)
Clique table members: 41.
MIP emphasis: balance optimality and feasibility.
MIP search method: dynamic search.
Parallel mode: deterministic, using up to 24 threads.
Root relaxation solution time = 0.01 sec. (2.71 ticks)

        Nodes                                         Cuts/
   Node  Left     Objective  IInf  Best Integer    Best Bound    ItCnt     Gap

*     0+    0                           56.0000        0.0000           100.00%
      0     0        0.0000    53       56.0000        0.0000      251  100.00%
      0     0        0.3333    75       56.0000     Cuts: 124      433   99.40%
*     0+    0                           17.0000        0.3333            98.04%
      0     0        1.0000   329       17.0000      Cuts: 68      567   94.12%
      0     0        1.0000   102       17.0000     Cuts: 118      628   94.12%
*     0+    0                           12.0000        1.0000            91.67%
      0     0        1.0000   151       12.0000      Cuts: 56      751   91.67%
*     0+    0                           10.0000        1.0000            90.00%
      0     0        cutoff             10.0000       10.0000      958    0.00%
Elapsed time = 0.21 sec. (112.51 ticks, tree = 0.01 MB, solutions = 4)

Cover cuts applied:  17
Implied bound cuts applied:  31
Flow cuts applied:  6
Mixed integer rounding cuts applied:  15
Zero-half cuts applied:  109
Gomory fractional cuts applied:  18

Root node processing (before b&c):
  Real time             =    0.21 sec. (112.64 ticks)
Parallel b&c, 24 threads:
  Real time             =    0.00 sec. (0.00 ticks)
  Sync time (average)   =    0.00 sec.
  Wait time (average)   =    0.00 sec.
                          ------------
Total (root+branch&cut) =    0.21 sec. (112.64 ticks)

Solution status = Optimal
Solution LB = 10
Solution UB = 10
Runtime = 0.220562 seconds
	Command being timed: "/home/min/git_repos/CS598MEBProject/CNT-ILP/build/cnt -s 2 ./output/k6_n40/simC_c1_k6_n40_u1_s2_del02.input-right.cnp"
	User time (seconds): 1.48
	System time (seconds): 0.10
	Percent of CPU this job got: 644%
	Elapsed (wall clock) time (h:mm:ss or m:ss): 0:00.24
	Average shared text size (kbytes): 0
	Average unshared data size (kbytes): 0
	Average stack size (kbytes): 0
	Average total size (kbytes): 0
	Maximum resident set size (kbytes): 92948
	Average resident set size (kbytes): 0
	Major (requiring I/O) page faults: 3
	Minor (reclaiming a frame) page faults: 20203
	Voluntary context switches: 4727
	Involuntary context switches: 135
	Swaps: 0
	File system inputs: 792
	File system outputs: 16
	Socket messages sent: 0
	Socket messages received: 0
	Signals delivered: 0
	Page size (bytes): 4096
	Exit status: 0
